NAME PortOpt_n20_m8_inst_0
ROWS
 N  OBJ
 E  budget  
 L  return  
 L  uncertain_risk
 L  fixed_risk
COLUMNS
    asset[0]  budget    1
    asset[0]  return    -2.7084135694810740e+00
    asset[1]  budget    1
    asset[1]  return    -4.1752175541289756e+00
    asset[2]  budget    1
    asset[2]  return    -4.7227967951522238e+00
    asset[3]  budget    1
    asset[3]  return    -3.0804449333917585e+00
    asset[4]  budget    1
    asset[4]  return    -2.3440848859247319e+00
    asset[5]  budget    1
    asset[5]  return    -4.0344688536322932e+00
    asset[6]  budget    1
    asset[6]  return    -4.0341458022600172e+00
    asset[7]  budget    1
    asset[7]  return    -1.6526740302100431e+00
    asset[8]  budget    1
    asset[8]  return    -3.2016639294212670e+00
    asset[9]  budget    1
    asset[9]  return    -2.1565725874574628e+00
    asset[10]  budget    1
    asset[10]  return    -4.5684886837787460e+00
    asset[11]  budget    1
    asset[11]  return    -4.1536142443063095e+00
    asset[12]  budget    1
    asset[12]  return    -2.1661744491009540e+00
    asset[13]  budget    1
    asset[13]  return    -2.2609408671595941e+00
    asset[14]  budget    1
    asset[14]  return    -3.8884788834584021e+00
    asset[15]  budget    1
    asset[15]  return    -3.9833985254792359e+00
    asset[16]  budget    1
    asset[16]  return    -3.2939428388003407e+00
    asset[17]  budget    1
    asset[17]  return    -1.6900449031727949e+00
    asset[18]  budget    1
    asset[18]  return    -4.9152735020075111e+00
    asset[19]  budget    1
    asset[19]  return    -2.0168399110962367e+00
    return_var  OBJ       -1
    return_var  return    1
    uncertain_risk_var  OBJ       1
    uncertain_risk_var  uncertain_risk  -1
    fixed_risk_var  OBJ       1
    fixed_risk_var  fixed_risk  -1
RHS
    RHS1      budget    1
BOUNDS
 FR BND1      asset[0]
 FR BND1      asset[1]
 FR BND1      asset[2]
 FR BND1      asset[3]
 FR BND1      asset[4]
 FR BND1      asset[5]
 FR BND1      asset[6]
 FR BND1      asset[7]
 FR BND1      asset[8]
 FR BND1      asset[9]
 FR BND1      asset[10]
 FR BND1      asset[11]
 FR BND1      asset[12]
 FR BND1      asset[13]
 FR BND1      asset[14]
 FR BND1      asset[15]
 FR BND1      asset[16]
 FR BND1      asset[17]
 FR BND1      asset[18]
 FR BND1      asset[19]
 FR BND1      return_var
 FR BND1      uncertain_risk_var
 FR BND1      fixed_risk_var
QCMATRIX   uncertain_risk
    asset[0]  asset[0]  5.2903893747579304e-02
    asset[0]  asset[1]  -1.6795211507364093e-02
    asset[1]  asset[0]  -1.6795211507364093e-02
    asset[0]  asset[2]  -2.1157378131022982e-02
    asset[2]  asset[0]  -2.1157378131022982e-02
    asset[0]  asset[3]  6.9761429226088550e-03
    asset[3]  asset[0]  6.9761429226088550e-03
    asset[0]  asset[4]  -8.7344717350961790e-03
    asset[4]  asset[0]  -8.7344717350961790e-03
    asset[0]  asset[5]  -1.4481801527111659e-02
    asset[5]  asset[0]  -1.4481801527111659e-02
    asset[0]  asset[6]  -3.1515295721380204e-02
    asset[6]  asset[0]  -3.1515295721380204e-02
    asset[0]  asset[7]  2.8451130150108058e-03
    asset[7]  asset[0]  2.8451130150108058e-03
    asset[0]  asset[8]  -1.1230998654337951e-02
    asset[8]  asset[0]  -1.1230998654337951e-02
    asset[0]  asset[9]  -4.7930890574795115e-04
    asset[9]  asset[0]  -4.7930890574795115e-04
    asset[0]  asset[10]  -1.1965641171021037e-02
    asset[10]  asset[0]  -1.1965641171021037e-02
    asset[0]  asset[11]  -9.9372971719902808e-03
    asset[11]  asset[0]  -9.9372971719902808e-03
    asset[0]  asset[12]  1.0625031547852040e-02
    asset[12]  asset[0]  1.0625031547852040e-02
    asset[0]  asset[13]  2.1397415178237188e-02
    asset[13]  asset[0]  2.1397415178237188e-02
    asset[0]  asset[14]  -7.9484900544348133e-03
    asset[14]  asset[0]  -7.9484900544348133e-03
    asset[0]  asset[15]  8.9423716965818557e-03
    asset[15]  asset[0]  8.9423716965818557e-03
    asset[0]  asset[16]  1.4603154152407474e-02
    asset[16]  asset[0]  1.4603154152407474e-02
    asset[0]  asset[17]  -2.3874354769341133e-02
    asset[17]  asset[0]  -2.3874354769341133e-02
    asset[0]  asset[18]  7.4494966985532577e-03
    asset[18]  asset[0]  7.4494966985532577e-03
    asset[0]  asset[19]  8.7016081529806919e-03
    asset[19]  asset[0]  8.7016081529806919e-03
    asset[1]  asset[1]  2.5896880843003116e-02
    asset[1]  asset[2]  1.6108672439211883e-02
    asset[2]  asset[1]  1.6108672439211883e-02
    asset[1]  asset[3]  -6.0104633645121398e-03
    asset[3]  asset[1]  -6.0104633645121398e-03
    asset[1]  asset[4]  4.8276118955666737e-03
    asset[4]  asset[1]  4.8276118955666737e-03
    asset[1]  asset[5]  1.3941294191333961e-02
    asset[5]  asset[1]  1.3941294191333961e-02
    asset[1]  asset[6]  -1.1931719136874176e-02
    asset[6]  asset[1]  -1.1931719136874176e-02
    asset[1]  asset[7]  4.3723277416318849e-03
    asset[7]  asset[1]  4.3723277416318849e-03
    asset[1]  asset[8]  -5.4922460800922619e-03
    asset[8]  asset[1]  -5.4922460800922619e-03
    asset[1]  asset[9]  -2.2507609934012598e-03
    asset[9]  asset[1]  -2.2507609934012598e-03
    asset[1]  asset[10]  -1.3930319086682204e-03
    asset[10]  asset[1]  -1.3930319086682204e-03
    asset[1]  asset[11]  4.3203790042246615e-03
    asset[11]  asset[1]  4.3203790042246615e-03
    asset[1]  asset[12]  -1.3660206828607808e-02
    asset[12]  asset[1]  -1.3660206828607808e-02
    asset[1]  asset[13]  -4.1167774308606877e-03
    asset[13]  asset[1]  -4.1167774308606877e-03
    asset[1]  asset[14]  2.3086827526694473e-02
    asset[14]  asset[1]  2.3086827526694473e-02
    asset[1]  asset[15]  -2.0376458113768106e-02
    asset[15]  asset[1]  -2.0376458113768106e-02
    asset[1]  asset[16]  -1.7834920306228252e-02
    asset[16]  asset[1]  -1.7834920306228252e-02
    asset[1]  asset[17]  1.1790322982465001e-02
    asset[17]  asset[1]  1.1790322982465001e-02
    asset[1]  asset[18]  -4.2525613370646073e-03
    asset[18]  asset[1]  -4.2525613370646073e-03
    asset[1]  asset[19]  -9.5361905459251627e-03
    asset[19]  asset[1]  -9.5361905459251627e-03
    asset[2]  asset[2]  2.9608573145802147e-02
    asset[2]  asset[3]  -1.1876307933441212e-02
    asset[3]  asset[2]  -1.1876307933441212e-02
    asset[2]  asset[4]  1.2801159234691488e-02
    asset[4]  asset[2]  1.2801159234691488e-02
    asset[2]  asset[5]  2.2250138460989015e-03
    asset[5]  asset[2]  2.2250138460989015e-03
    asset[2]  asset[6]  -1.2769512684707170e-02
    asset[6]  asset[2]  -1.2769512684707170e-02
    asset[2]  asset[7]  -8.2877882840990992e-03
    asset[7]  asset[2]  -8.2877882840990992e-03
    asset[2]  asset[8]  1.5077944830160814e-03
    asset[8]  asset[2]  1.5077944830160814e-03
    asset[2]  asset[9]  -6.1785365259205242e-03
    asset[9]  asset[2]  -6.1785365259205242e-03
    asset[2]  asset[10]  -1.2459024332286048e-02
    asset[10]  asset[2]  -1.2459024332286048e-02
    asset[2]  asset[11]  -6.6140157714630124e-03
    asset[11]  asset[2]  -6.6140157714630124e-03
    asset[2]  asset[12]  -1.8206992148213735e-02
    asset[12]  asset[2]  -1.8206992148213735e-02
    asset[2]  asset[13]  9.5154737378285326e-04
    asset[13]  asset[2]  9.5154737378285326e-04
    asset[2]  asset[14]  2.4433162375038613e-02
    asset[14]  asset[2]  2.4433162375038613e-02
    asset[2]  asset[15]  -1.7958348481766237e-02
    asset[15]  asset[2]  -1.7958348481766237e-02
    asset[2]  asset[16]  -8.5861684423532633e-03
    asset[16]  asset[2]  -8.5861684423532633e-03
    asset[2]  asset[17]  4.6755784597497015e-03
    asset[17]  asset[2]  4.6755784597497015e-03
    asset[2]  asset[18]  3.8061227208760766e-04
    asset[18]  asset[2]  3.8061227208760766e-04
    asset[2]  asset[19]  -1.0939694391423383e-02
    asset[19]  asset[2]  -1.0939694391423383e-02
    asset[3]  asset[3]  1.3243594885652193e-02
    asset[3]  asset[4]  -6.3933505026506055e-04
    asset[4]  asset[3]  -6.3933505026506055e-04
    asset[3]  asset[5]  -9.9219904019417805e-03
    asset[5]  asset[3]  -9.9219904019417805e-03
    asset[3]  asset[6]  1.8982378646640340e-02
    asset[6]  asset[3]  1.8982378646640340e-02
    asset[3]  asset[7]  -1.2723661974604870e-02
    asset[7]  asset[3]  -1.2723661974604870e-02
    asset[3]  asset[8]  2.9894355229462361e-03
    asset[8]  asset[3]  2.9894355229462361e-03
    asset[3]  asset[9]  7.1398624277069500e-03
    asset[9]  asset[3]  7.1398624277069500e-03
    asset[3]  asset[10]  3.3891229795465412e-03
    asset[10]  asset[3]  3.3891229795465412e-03
    asset[3]  asset[11]  1.6864080669090512e-02
    asset[11]  asset[3]  1.6864080669090512e-02
    asset[3]  asset[12]  1.7740972259122932e-02
    asset[12]  asset[3]  1.7740972259122932e-02
    asset[3]  asset[13]  -7.4469084190815892e-03
    asset[13]  asset[3]  -7.4469084190815892e-03
    asset[3]  asset[14]  -1.5296730781240230e-02
    asset[14]  asset[3]  -1.5296730781240230e-02
    asset[3]  asset[15]  1.3068804764928856e-02
    asset[15]  asset[3]  1.3068804764928856e-02
    asset[3]  asset[16]  6.8957067264836039e-03
    asset[16]  asset[3]  6.8957067264836039e-03
    asset[3]  asset[17]  -7.2223777197108431e-05
    asset[17]  asset[3]  -7.2223777197108431e-05
    asset[3]  asset[18]  5.7351341260442534e-03
    asset[18]  asset[3]  5.7351341260442534e-03
    asset[3]  asset[19]  4.9958526284285786e-03
    asset[19]  asset[3]  4.9958526284285786e-03
    asset[4]  asset[4]  3.8296739305812101e-02
    asset[4]  asset[5]  1.4998661475387164e-02
    asset[5]  asset[4]  1.4998661475387164e-02
    asset[4]  asset[6]  7.8285998355734510e-03
    asset[6]  asset[4]  7.8285998355734510e-03
    asset[4]  asset[7]  -2.8719078207061086e-02
    asset[7]  asset[4]  -2.8719078207061086e-02
    asset[4]  asset[8]  2.3851350357320410e-02
    asset[8]  asset[4]  2.3851350357320410e-02
    asset[4]  asset[9]  -7.4126477594403280e-03
    asset[9]  asset[4]  -7.4126477594403280e-03
    asset[4]  asset[10]  -5.4873172386083816e-03
    asset[10]  asset[4]  -5.4873172386083816e-03
    asset[4]  asset[11]  2.5410179619131442e-02
    asset[11]  asset[4]  2.5410179619131442e-02
    asset[4]  asset[12]  -1.3317073365210593e-02
    asset[12]  asset[4]  -1.3317073365210593e-02
    asset[4]  asset[13]  3.0918881181342853e-02
    asset[13]  asset[4]  3.0918881181342853e-02
    asset[4]  asset[14]  1.7908899909337049e-02
    asset[14]  asset[4]  1.7908899909337049e-02
    asset[4]  asset[15]  1.0294391930322168e-02
    asset[15]  asset[4]  1.0294391930322168e-02
    asset[4]  asset[16]  8.1608493485561158e-03
    asset[16]  asset[4]  8.1608493485561158e-03
    asset[4]  asset[17]  -2.3762861756980027e-02
    asset[17]  asset[4]  -2.3762861756980027e-02
    asset[4]  asset[18]  1.6543677243185052e-02
    asset[18]  asset[4]  1.6543677243185052e-02
    asset[4]  asset[19]  1.1063000066254821e-02
    asset[19]  asset[4]  1.1063000066254821e-02
    asset[5]  asset[5]  4.2164555152104773e-02
    asset[5]  asset[6]  -3.8416619850122373e-03
    asset[6]  asset[5]  -3.8416619850122373e-03
    asset[5]  asset[7]  1.7833672339642725e-02
    asset[7]  asset[5]  1.7833672339642725e-02
    asset[5]  asset[8]  1.1889331671073842e-03
    asset[8]  asset[5]  1.1889331671073842e-03
    asset[5]  asset[9]  -8.9190340828382494e-03
    asset[9]  asset[5]  -8.9190340828382494e-03
    asset[5]  asset[10]  1.3963693371625726e-02
    asset[10]  asset[5]  1.3963693371625726e-02
    asset[5]  asset[11]  8.8222712691896077e-03
    asset[11]  asset[5]  8.8222712691896077e-03
    asset[5]  asset[12]  -2.5727886390205588e-02
    asset[12]  asset[5]  -2.5727886390205588e-02
    asset[5]  asset[13]  2.6592456883391298e-02
    asset[13]  asset[5]  2.6592456883391298e-02
    asset[5]  asset[14]  2.5195430576470255e-02
    asset[14]  asset[5]  2.5195430576470255e-02
    asset[5]  asset[15]  -6.0836689630254341e-03
    asset[15]  asset[5]  -6.0836689630254341e-03
    asset[5]  asset[16]  -1.4926960123991530e-02
    asset[16]  asset[5]  -1.4926960123991530e-02
    asset[5]  asset[17]  -8.7152598336714734e-03
    asset[17]  asset[5]  -8.7152598336714734e-03
    asset[5]  asset[18]  -3.3189056011563309e-03
    asset[18]  asset[5]  -3.3189056011563309e-03
    asset[5]  asset[19]  3.5875218484062357e-03
    asset[19]  asset[5]  3.5875218484062357e-03
    asset[6]  asset[6]  7.8886088344937599e-02
    asset[6]  asset[7]  -2.4085877261461022e-02
    asset[7]  asset[6]  -2.4085877261461022e-02
    asset[6]  asset[8]  2.8131910022062105e-02
    asset[8]  asset[6]  2.8131910022062105e-02
    asset[6]  asset[9]  8.8996001942333557e-03
    asset[9]  asset[6]  8.8996001942333557e-03
    asset[6]  asset[10]  2.2798744476182166e-02
    asset[10]  asset[6]  2.2798744476182166e-02
    asset[6]  asset[11]  3.7633391883571884e-02
    asset[11]  asset[6]  3.7633391883571884e-02
    asset[6]  asset[12]  2.9655196791441706e-02
    asset[12]  asset[6]  2.9655196791441706e-02
    asset[6]  asset[13]  -3.1551456877135425e-02
    asset[13]  asset[6]  -3.1551456877135425e-02
    asset[6]  asset[14]  -3.8731455324734224e-02
    asset[14]  asset[6]  -3.8731455324734224e-02
    asset[6]  asset[15]  3.4780534772594393e-02
    asset[15]  asset[6]  3.4780534772594393e-02
    asset[6]  asset[16]  8.5298142835603559e-03
    asset[16]  asset[6]  8.5298142835603559e-03
    asset[6]  asset[17]  1.3454148338274213e-02
    asset[17]  asset[6]  1.3454148338274213e-02
    asset[6]  asset[18]  4.7952077108770615e-04
    asset[18]  asset[6]  4.7952077108770615e-04
    asset[6]  asset[19]  1.2812102860256407e-02
    asset[19]  asset[6]  1.2812102860256407e-02
    asset[7]  asset[7]  5.1288310341622623e-02
    asset[7]  asset[8]  -2.2964968842748831e-02
    asset[8]  asset[7]  -2.2964968842748831e-02
    asset[7]  asset[9]  -3.5683070864034744e-03
    asset[9]  asset[7]  -3.5683070864034744e-03
    asset[7]  asset[10]  1.0617562312967562e-02
    asset[10]  asset[7]  1.0617562312967562e-02
    asset[7]  asset[11]  -3.2415312235219387e-02
    asset[11]  asset[7]  -3.2415312235219387e-02
    asset[7]  asset[12]  -1.2835003129488891e-02
    asset[12]  asset[7]  -1.2835003129488891e-02
    asset[7]  asset[13]  -5.3078442389714511e-03
    asset[13]  asset[7]  -5.3078442389714511e-03
    asset[7]  asset[14]  7.2489639137301026e-03
    asset[14]  asset[7]  7.2489639137301026e-03
    asset[7]  asset[15]  -1.7286974793738353e-02
    asset[15]  asset[7]  -1.7286974793738353e-02
    asset[7]  asset[16]  -1.9584299638770272e-02
    asset[16]  asset[7]  -1.9584299638770272e-02
    asset[7]  asset[17]  1.2695442780352848e-02
    asset[17]  asset[7]  1.2695442780352848e-02
    asset[7]  asset[18]  -2.2813452726107276e-02
    asset[18]  asset[7]  -2.2813452726107276e-02
    asset[7]  asset[19]  -8.2236493063337600e-03
    asset[19]  asset[7]  -8.2236493063337600e-03
    asset[8]  asset[8]  4.3513373671564715e-02
    asset[8]  asset[9]  -7.2998988954362338e-03
    asset[9]  asset[8]  -7.2998988954362338e-03
    asset[8]  asset[10]  -7.8278688308118364e-04
    asset[10]  asset[8]  -7.8278688308118364e-04
    asset[8]  asset[11]  1.6353292700154697e-02
    asset[11]  asset[8]  1.6353292700154697e-02
    asset[8]  asset[12]  6.9847458694339360e-03
    asset[12]  asset[8]  6.9847458694339360e-03
    asset[8]  asset[13]  -2.0165423990308627e-03
    asset[13]  asset[8]  -2.0165423990308627e-03
    asset[8]  asset[14]  -1.6259012420880674e-02
    asset[14]  asset[8]  -1.6259012420880674e-02
    asset[8]  asset[15]  2.6723383785640771e-02
    asset[15]  asset[8]  2.6723383785640771e-02
    asset[8]  asset[16]  1.6450377104806378e-02
    asset[16]  asset[8]  1.6450377104806378e-02
    asset[8]  asset[17]  -9.9575092919075431e-03
    asset[17]  asset[8]  -9.9575092919075431e-03
    asset[8]  asset[18]  2.3651257314200045e-03
    asset[18]  asset[8]  2.3651257314200045e-03
    asset[8]  asset[19]  2.0942205664610053e-02
    asset[19]  asset[8]  2.0942205664610053e-02
    asset[9]  asset[9]  1.0790615503562579e-02
    asset[9]  asset[10]  3.6415387275026989e-03
    asset[10]  asset[9]  3.6415387275026989e-03
    asset[9]  asset[11]  6.7317906233801969e-03
    asset[11]  asset[9]  6.7317906233801969e-03
    asset[9]  asset[12]  7.6156766086416874e-03
    asset[12]  asset[9]  7.6156766086416874e-03
    asset[9]  asset[13]  -6.7485870291853298e-03
    asset[13]  asset[9]  -6.7485870291853298e-03
    asset[9]  asset[14]  -4.2824943533379158e-03
    asset[14]  asset[9]  -4.2824943533379158e-03
    asset[9]  asset[15]  -1.1499061939356590e-03
    asset[15]  asset[9]  -1.1499061939356590e-03
    asset[9]  asset[16]  1.7409581803715735e-03
    asset[16]  asset[9]  1.7409581803715735e-03
    asset[9]  asset[17]  6.5507507308436184e-03
    asset[17]  asset[9]  6.5507507308436184e-03
    asset[9]  asset[18]  4.8402392251601922e-03
    asset[18]  asset[9]  4.8402392251601922e-03
    asset[9]  asset[19]  -4.6226393148603856e-03
    asset[19]  asset[9]  -4.6226393148603856e-03
    asset[10]  asset[10]  1.9524528401445043e-02
    asset[10]  asset[11]  1.0384491140633306e-02
    asset[11]  asset[10]  1.0384491140633306e-02
    asset[10]  asset[12]  3.6194420010128899e-03
    asset[12]  asset[10]  3.6194420010128899e-03
    asset[10]  asset[13]  -6.5613358219196363e-03
    asset[13]  asset[10]  -6.5613358219196363e-03
    asset[10]  asset[14]  -1.0059335711402242e-02
    asset[14]  asset[10]  -1.0059335711402242e-02
    asset[10]  asset[15]  5.5147732261864642e-03
    asset[15]  asset[10]  5.5147732261864642e-03
    asset[10]  asset[16]  -5.5104053044178602e-03
    asset[16]  asset[10]  -5.5104053044178602e-03
    asset[10]  asset[17]  8.1792228072157698e-03
    asset[17]  asset[10]  8.1792228072157698e-03
    asset[10]  asset[18]  -5.0970049831070077e-03
    asset[18]  asset[10]  -5.0970049831070077e-03
    asset[10]  asset[19]  2.5241092503092430e-03
    asset[19]  asset[10]  2.5241092503092430e-03
    asset[11]  asset[11]  4.8685604869843774e-02
    asset[11]  asset[12]  1.0403006898090802e-02
    asset[12]  asset[11]  1.0403006898090802e-02
    asset[11]  asset[13]  8.2352437122232298e-03
    asset[13]  asset[11]  8.2352437122232298e-03
    asset[11]  asset[14]  -3.4902354932182331e-03
    asset[14]  asset[11]  -3.4902354932182331e-03
    asset[11]  asset[15]  1.8001704214852220e-02
    asset[15]  asset[11]  1.8001704214852220e-02
    asset[11]  asset[16]  5.9520833713066403e-03
    asset[16]  asset[11]  5.9520833713066403e-03
    asset[11]  asset[17]  -7.9517922552736382e-03
    asset[17]  asset[11]  -7.9517922552736382e-03
    asset[11]  asset[18]  1.7351588422009116e-02
    asset[18]  asset[11]  1.7351588422009116e-02
    asset[11]  asset[19]  1.0674976016589063e-02
    asset[19]  asset[11]  1.0674976016589063e-02
    asset[12]  asset[12]  3.5838516150589868e-02
    asset[12]  asset[13]  -3.2384555054594186e-02
    asset[13]  asset[12]  -3.2384555054594186e-02
    asset[12]  asset[14]  -4.0038209304772518e-02
    asset[14]  asset[12]  -4.0038209304772518e-02
    asset[12]  asset[15]  2.1598603657743840e-02
    asset[15]  asset[12]  2.1598603657743840e-02
    asset[12]  asset[16]  1.1019180856983852e-02
    asset[16]  asset[12]  1.1019180856983852e-02
    asset[12]  asset[17]  1.0585274932189741e-02
    asset[17]  asset[12]  1.0585274932189741e-02
    asset[12]  asset[18]  -2.3882878923287198e-03
    asset[18]  asset[12]  -2.3882878923287198e-03
    asset[12]  asset[19]  7.5421039467862151e-03
    asset[19]  asset[12]  7.5421039467862151e-03
    asset[13]  asset[13]  7.2504923353408898e-02
    asset[13]  asset[14]  3.9625442745689701e-02
    asset[14]  asset[13]  3.9625442745689701e-02
    asset[13]  asset[15]  -8.4137738177798122e-04
    asset[15]  asset[13]  -8.4137738177798122e-04
    asset[13]  asset[16]  8.6206892000812788e-03
    asset[16]  asset[13]  8.6206892000812788e-03
    asset[13]  asset[17]  -4.5957862252404752e-02
    asset[17]  asset[13]  -4.5957862252404752e-02
    asset[13]  asset[18]  2.3528190661674490e-02
    asset[18]  asset[13]  2.3528190661674490e-02
    asset[13]  asset[19]  7.7888202105335733e-03
    asset[19]  asset[13]  7.7888202105335733e-03
    asset[14]  asset[14]  5.7008570432524122e-02
    asset[14]  asset[15]  -3.0181712137649915e-02
    asset[15]  asset[14]  -3.0181712137649915e-02
    asset[14]  asset[16]  -1.5975360839752574e-02
    asset[16]  asset[14]  -1.5975360839752574e-02
    asset[14]  asset[17]  -1.2775737725438129e-02
    asset[17]  asset[14]  -1.2775737725438129e-02
    asset[14]  asset[18]  8.9279473610172390e-03
    asset[18]  asset[14]  8.9279473610172390e-03
    asset[14]  asset[19]  -1.3916116102585974e-02
    asset[19]  asset[14]  -1.3916116102585974e-02
    asset[15]  asset[15]  3.6047625439122578e-02
    asset[15]  asset[16]  1.9276162139115087e-02
    asset[16]  asset[15]  1.9276162139115087e-02
    asset[15]  asset[17]  -1.3961850302298328e-02
    asset[17]  asset[15]  -1.3961850302298328e-02
    asset[15]  asset[18]  4.2739630057368593e-03
    asset[18]  asset[15]  4.2739630057368593e-03
    asset[15]  asset[19]  2.1492321847716329e-02
    asset[19]  asset[15]  2.1492321847716329e-02
    asset[16]  asset[16]  2.1547997422808881e-02
    asset[16]  asset[17]  -1.5631664898633449e-02
    asset[17]  asset[16]  -1.5631664898633449e-02
    asset[16]  asset[18]  1.1194111866388346e-02
    asset[18]  asset[16]  1.1194111866388346e-02
    asset[16]  asset[19]  1.2099387240292999e-02
    asset[19]  asset[16]  1.2099387240292999e-02
    asset[17]  asset[17]  3.7388761533080309e-02
    asset[17]  asset[18]  -1.6982481055068423e-02
    asset[18]  asset[17]  -1.6982481055068423e-02
    asset[17]  asset[19]  -1.3987802496296723e-02
    asset[19]  asset[17]  -1.3987802496296723e-02
    asset[18]  asset[18]  1.9443049770305677e-02
    asset[18]  asset[19]  2.4896336560473842e-03
    asset[19]  asset[18]  2.4896336560473842e-03
    asset[19]  asset[19]  1.7037613831104827e-02
QCMATRIX   fixed_risk
    asset[0]  asset[0]  5.3123235449511492e-03
    asset[1]  asset[1]  2.3828248663632298e-03
    asset[2]  asset[2]  3.0662833325122534e-03
    asset[3]  asset[3]  1.2489884184906253e-03
    asset[4]  asset[4]  3.9938204330644692e-03
    asset[5]  asset[5]  4.1277770121393434e-03
    asset[6]  asset[6]  9.1515991266552868e-03
    asset[7]  asset[7]  4.9762181337817532e-03
    asset[8]  asset[8]  4.7396946938313370e-03
    asset[9]  asset[9]  1.0254610622486766e-03
    asset[10]  asset[10]  1.9199084235131687e-03
    asset[11]  asset[11]  4.7979400148365943e-03
    asset[12]  asset[12]  3.4973013493077736e-03
    asset[13]  asset[13]  7.7530158459076350e-03
    asset[14]  asset[14]  5.8748468962869331e-03
    asset[15]  asset[15]  3.7592179950908414e-03
    asset[16]  asset[16]  1.9850117298282348e-03
    asset[17]  asset[17]  3.8783251714497370e-03
    asset[18]  asset[18]  1.8574841046584485e-03
    asset[19]  asset[19]  1.6454905043470334e-03
ENDATA
